benchmarks_vrp/CMT3/no_cluster/CMT3_7.vrp
NAME: CMT3_7
TYPE: CVRP
COMMENT: 826.14 - Cluster Nr.7
DIMENSION: 11
CAPACITY: 200
EDGE_WEIGHT_TYPE: EUC_2D
NODE_COORD_TYPE: TWOD_COORDS
NODE_COORD_SECTION: 
9 40 60
7 63 65
1 65 55
2 45 65
5 57 68
6 55 54
11 55 60
4 35 35
3 62 77
8 49 73
10 49 58
DEPOT_SECTION: 
4
-1
DEMAND_SECTION: 
8 25
6 26
11 16
9 21
10 10
4 0
3 20
1 14
7 8
5 15
2 9
EOF
