benchmarks_vrp/CMT3/no_cluster/CMT3_7.tour
NAME: CMT3_7 solution
TYPE: TOUR
TOUR_SECTION:
4 9 2 8 5 3 7 1 6 11 10 -1
-1
EOF